0039 0 1 330 346 363 382 394 411 426 448 462 480
1876 1 1 360 378 391 414 429 445 457 477 493 510
2457 0 2 540 566 599 615
3612 1 2 660 675 708 735
4444 0 3 1020 1039 1063 1075
5025 1 3 1100 1111 1136 1155
6682 0 1 465 481 498 517 529 546 561 583 597 615
7001 1 1 999 1017 1030 1053 1068 1084 1096 1116 1132 1149
8765 0 2 605 631 664 680
9990 1 2 945 960 993 1020
1122 0 3 1080 1099 1123 1135
2109 1 3 805 816 841 860
